(set-info :source  loris-7.ddns.comp.nus.edu.sg/~project/hip/) 
;Variables declarations
(declare-fun n_2834 () Int)
(declare-fun m_2833 () Int)
(declare-fun cm () Int)
(declare-fun h_primed () Int)
(declare-fun h_2831 () Int)
(declare-fun bm () Int)
(declare-fun am () Int)
(declare-fun a () Int)
(declare-fun b () Int)
(declare-fun c_primed () Int)
(declare-fun c () Int)
(declare-fun d_primed () Int)
(declare-fun v1_primed () Int)
(declare-fun v1 () Int)
(declare-fun v2_primed () Int)
(declare-fun v2 () Int)
(declare-fun v3_primed () Int)
(declare-fun v3 () Int)
(declare-fun bn () Int)
(declare-fun cn () Int)
(declare-fun an () Int)
(declare-fun an_2810 () Int)
(declare-fun dm () Int)
(declare-fun d () Int)
(declare-fun n () Int)
(declare-fun m () Int)
(declare-fun a_primed () Int)
(declare-fun n_2815 () Int)
(declare-fun m_2814 () Int)
(declare-fun b_primed () Int)
(declare-fun tmp1_primed () Int)
;Relations declarations
;Axioms assertions
;Antecedent
(assert (= n_2834 cn))
(assert (= m_2833 cm))
(assert (= h_primed (+ 1 h_2831)))
(assert (or (and (= h_2831 n) (>= n n_2815)) (and (= h_2831 n_2815) (< n n_2815))))
(assert (<= 0 n_2815))
(assert (<= 0 m_2814))
(assert (<= 0 bn))
(assert (<= 0 bm))
(assert (= n_2815 bn))
(assert (= m_2814 bm))
(assert (<= 0 n))
(assert (<= 0 m))
(assert (<= 0 an))
(assert (<= 0 am))
(assert (= n an))
(assert (= m am))
(assert (= a_primed a))
(assert (= b_primed b))
(assert (= c_primed c))
(assert (= d_primed d))
(assert (= v1_primed v1))
(assert (= v2_primed v2))
(assert (= v3_primed v3))
(assert (or (and (= an bn) (>= bn cn)) (and (= an cn) (< bn cn))))
(assert (<= (+ 0 cn) (+ bn 1)))
(assert (<= bn (+ 1 cn)))
(assert (= an_2810 an))
(assert (or (and (and (< d 1) (= dm 0)) (= an_2810 0)) (and (and (<= 1 an_2810) (<= 1 dm)) (> d 0))))
(assert (or (and (and (< a_primed 1) (= m 0)) (= n 0)) (and (and (<= 1 n) (<= 1 m)) (> a_primed 0))))
(assert (or (and (and (< b_primed 1) (= m_2814 0)) (= n_2815 0)) (and (and (<= 1 n_2815) (<= 1 m_2814)) (> b_primed 0))))
(assert (= tmp1_primed 1))
;Negation of Consequence
(assert (not false))
(check-sat)